(set-info :smt-lib-version 2.6)
(set-logic QF_UF)
(set-info :category "crafted")
(set-info :status unsat)
(declare-sort S1 0)
(declare-fun f (S1) S1)
(declare-fun g (S1) S1)
(declare-fun a () S1)
(declare-fun b () S1)
(assert (let ((t1 (f b )) (t2 (f a )) (t3 (g a ))(t4 (g b ))(t5 (g t2 ))(t6 (g t1 ))(t7 (g t3 ))(t8 (g t4 ))(t9 (f t1 ))(t10 (f t2 ))(t11 (f t3 ))(t12 (f t4 ))(t13 (f t5 ))(t14 (f t6 ))(t15 (f t7 ))(t16 (f t8 ))(t17 (f t9 ))(t18 (f t10 ))(t19 (f t11 ))(t20 (f t12 ))(t21 (g t5))(t22 (g t6))(t23 (g t7))(t24 (g t8))(t25 (g t9))(t26 (g t10))(t27 (g t11))(t21 (g t12))) (and (= t1 a) (= t11 t5)(= t14 a) (not (= t5 a)))))
(check-sat)
(exit)